*SPEF "IEEE 1481-1998"
*DESIGN "adder_2bit"
*DATE "Fri Mar 21 02:28:11 2025"
*VENDOR "Cadence Design Systems, Inc."
*PROGRAM "Innovus"
*VERSION "17.12-s095_1"
*DESIGN_FLOW "PIN_CAP NONE" "NAME_SCOPE LOCAL"
*DIVIDER /
*DELIMITER :
*BUS_DELIMITER []
*T_UNIT 1 NS
*C_UNIT 1 PF
*R_UNIT 1 OHM
*L_UNIT 1 HENRY

// MMMC spef file for corner 'RC_corner_25'

*NAME_MAP

*1 clk
*2 a[1]
*3 a[0]
*4 b[1]
*5 b[0]
*6 sum[1]
*7 sum[0]
*8 cout
*9 n9
*10 n10
*11 n11
*12 n12
*13 n13
*14 n14
*15 n15
*16 n18
*17 n19
*18 FE_RC_1_0
*19 FE_RC_0_0
*20 cout_reg
*21 sum_reg_1_
*22 sum_reg_0_
*23 U14
*24 U15
*25 U16
*26 U17
*27 U18
*28 U23
*29 U24


*PORTS

*1 I *C 0 8.46
*2 I *C 0 13.86
*3 I *C 0 3.06
*4 I *C 0 14.58
*5 I *C 0 2.124
*6 O *C 18.144 6.588
*7 O *C 18.144 10.908
*8 O *C 18.144 8.748


*D_NET *1 0.000290394

*CONN
*P *1 I *C 0 8.46 *L 0
*I *22:CLK I *C 8.136 8.604 *L 0.00033 *D DFFHQNx1_ASAP7_75t_R
*I *21:CLK I *C 7.92 6.444 *L 0.00033 *D DFFHQNx1_ASAP7_75t_R
*I *20:CLK I *C 8.352 10.764 *L 0.00033 *D DFFHQNx1_ASAP7_75t_R

*CAP
1 *20:CLK 2.43783e-05
2 *22:CLK 2.26498e-06
3 *21:CLK 2.09212e-05
4 *1 1.06692e-05
5 *1:4 8.92282e-05
6 *1:5 4.88162e-05
7 *1:6 9.41157e-05

*RES
1 *1:6 *1 38.8886
2 *21:CLK *1:5 51.7248
3 *1:4 *1:6 122.793
4 *1:5 *1:4 12.313
5 *22:CLK *1:4 11.3622
6 *20:CLK *1:5 58.9919
*END

*D_NET *2 0.000358582

*CONN
*P *2 I *C 0 13.86 *L 0
*I *26:C I *C 6.192 5.94 *L 0.000368 *D NAND3xp33_ASAP7_75t_R
*I *19:A I *C 5.184 10.62 *L 0.000774 *D XOR2xp5_ASAP7_75t_R
*I *18:A2 I *C 5.832 8.46 *L 0.000422 *D AOI21xp5_ASAP7_75t_R

*CAP
1 *26:C 1.40071e-05
2 *18:A2 7.689e-06
3 *19:A 2.20537e-06
4 *2 9.92417e-05
5 *2:4 6.38366e-05
6 *2:5 4.68493e-05
7 *2:6 0.000124753

*RES
1 *2:6 *2 141.058
2 *2:5 *2:4 65.4238
3 *2:4 *2:6 50.6859
4 *19:A *2:6 11.3622
5 *18:A2 *2:4 29.7198
6 *26:C *2:5 24.7418
*END

*D_NET *3 0.000554562

*CONN
*P *3 I *C 0 3.06 *L 0
*I *29:A1 I *C 8.568 5.796 *L 0.000415 *D A2O1A1Ixp33_ASAP7_75t_R
*I *28:B I *C 11.232 5.94 *L 0.000369 *D NAND3xp33_ASAP7_75t_R
*I *26:B I *C 6.048 5.94 *L 0.000369 *D NAND3xp33_ASAP7_75t_R
*I *25:B I *C 6.048 8.1 *L 0.000369 *D NAND3xp33_ASAP7_75t_R
*I *24:B I *C 10.008 7.956 *L 0.000379 *D NAND2xp5_ASAP7_75t_R
*I *23:A2 I *C 8.424 7.812 *L 0.000305 *D OAI21xp33_ASAP7_75t_R

*CAP
1 *28:B 3.43919e-05
2 *24:B 1.54972e-06
3 *29:A1 3.85046e-05
4 *23:A2 1.43051e-06
5 *25:B 1.0252e-05
6 *26:B 2.14577e-06
7 *3 0.000112951
8 *3:7 5.50151e-05
9 *3:8 3.89814e-05
10 *3:9 7.70092e-05
11 *3:10 5.61476e-05
12 *3:11 0.000126183

*RES
1 *3:11 *3 154.728
2 *26:B *3:11 11.3622
3 *25:B *3:10 22.2968
4 *3:9 *3:11 10.9346
5 *3:10 *3:9 61.8443
6 *23:A2 *3:8 11.3622
7 *3:8 *3:10 25.6045
8 *29:A1 *3:9 40.6343
9 *3:7 *3:8 23.7708
10 *24:B *3:7 11.3622
11 *28:B *3:7 89.0312
*END

*D_NET *4 0.000327349

*CONN
*P *4 I *C 0 14.58 *L 0
*I *25:C I *C 6.192 8.1 *L 0.000368 *D NAND3xp33_ASAP7_75t_R
*I *19:B I *C 5.472 10.764 *L 0.000758 *D XOR2xp5_ASAP7_75t_R
*I *18:A1 I *C 6.264 8.604 *L 0.000429 *D AOI21xp5_ASAP7_75t_R

*CAP
1 *18:A1 6.49691e-06
2 *25:C 1.63913e-05
3 *4 0.000110567
4 *19:B 1.60933e-06
5 *4:4 5.14984e-05
6 *4:5 0.000140786

*RES
1 *19:B *4:5 11.3622
2 *4:5 *4 160.393
3 *4:4 *4:5 58.021
4 *25:C *4:4 35.2211
5 *18:A1 *4:4 23.6753
*END

*D_NET *5 0.000574827

*CONN
*P *5 I *C 0 2.124 *L 0
*I *29:A2 I *C 8.856 5.796 *L 0.000414 *D A2O1A1Ixp33_ASAP7_75t_R
*I *28:A I *C 10.944 5.796 *L 0.000371 *D NAND3xp33_ASAP7_75t_R
*I *26:A I *C 5.76 5.796 *L 0.000371 *D NAND3xp33_ASAP7_75t_R
*I *25:A I *C 5.76 7.956 *L 0.000371 *D NAND3xp33_ASAP7_75t_R
*I *24:A I *C 10.296 8.1 *L 0.000378 *D NAND2xp5_ASAP7_75t_R
*I *23:A1 I *C 7.992 7.956 *L 0.000326 *D OAI21xp33_ASAP7_75t_R

*CAP
1 *28:A 3.3617e-05
2 *24:A 3.94583e-05
3 *29:A2 1.54972e-06
4 *23:A1 1.90735e-06
5 *25:A 2.28286e-05
6 *26:A 2.02656e-06
7 *5 0.000115693
8 *5:7 5.01871e-05
9 *5:8 2.55108e-05
10 *5:9 4.18425e-05
11 *5:10 6.52671e-05
12 *5:11 2.74181e-05
13 *5:12 0.000147521

*RES
1 *5:12 *5 162.061
2 *26:A *5:12 11.3622
3 *25:A *5:11 43.0793
4 *5:10 *5:12 31.7171
5 *5:9 *5:8 12.313
6 *5:8 *5:10 44.6414
7 *5:11 *5:8 12.8564
8 *23:A1 *5:11 12.5169
9 *5:7 *5:10 15.8246
10 *29:A2 *5:7 11.3622
11 *24:A *5:9 52.8593
12 *28:A *5:7 46.1355
*END

*D_NET *6 0.000127077

*CONN
*P *6 O *C 18.144 6.588 *L 1e-05
*I *21:QN O *C 11.808 6.3 *L 0 *D DFFHQNx1_ASAP7_75t_R

*CAP
1 *6 6.24061e-05
2 *21:QN 1.13249e-06
3 *6:2 6.35385e-05

*RES
1 *6:2 *21:QN 11.3622
2 *6 *6:2 106.018
*END

*D_NET *7 0.000179291

*CONN
*P *7 O *C 18.144 10.908 *L 1e-05
*I *22:QN O *C 12.024 8.46 *L 0 *D DFFHQNx1_ASAP7_75t_R

*CAP
1 *7 5.70416e-05
2 *22:QN 3.26037e-05
3 *7:2 8.96454e-05

*RES
1 *7:2 *22:QN 69.4712
2 *7 *7:2 94.404
*END

*D_NET *8 0.000179291

*CONN
*P *8 O *C 18.144 8.748 *L 1e-05
*I *20:QN O *C 12.24 10.62 *L 0 *D DFFHQNx1_ASAP7_75t_R

*CAP
1 *8 5.79357e-05
2 *20:QN 3.17097e-05
3 *8:2 8.96454e-05

*RES
1 *8:2 *20:QN 65.666
2 *8 *8:2 96.849
*END

*D_NET *9 5.01871e-05

*CONN
*I *29:Y O *C 9.432 5.94 *L 0 *D A2O1A1Ixp33_ASAP7_75t_R
*I *21:D I *C 8.64 6.3 *L 0.000429 *D DFFHQNx1_ASAP7_75t_R

*CAP
1 *29:Y 1.26362e-05
2 *21:D 1.24574e-05
3 *9:2 2.50936e-05

*RES
1 *21:D *9:2 43.7988
2 *9:2 *29:Y 21.0743
*END

*D_NET *10 0.000100613

*CONN
*I *20:D I *C 9.072 10.62 *L 0.000429 *D DFFHQNx1_ASAP7_75t_R
*I *18:Y O *C 6.696 8.46 *L 0 *D AOI21xp5_ASAP7_75t_R

*CAP
1 *18:Y 5.03063e-05
2 *20:D 5.03063e-05

*RES
1 *20:D *18:Y 106.438
*END

*D_NET *11 2.65837e-05

*CONN
*I *23:Y O *C 8.856 7.956 *L 0 *D OAI21xp33_ASAP7_75t_R
*I *22:D I *C 8.856 8.46 *L 0.000429 *D DFFHQNx1_ASAP7_75t_R

*CAP
1 *23:Y 1.32918e-05
2 *22:D 1.32918e-05

*RES
1 *22:D *23:Y 54.0065
*END

*D_NET *12 4.29153e-05

*CONN
*I *24:Y O *C 9.72 8.1 *L 0 *D NAND2xp5_ASAP7_75t_R
*I *23:B I *C 8.568 7.812 *L 0.000305 *D OAI21xp33_ASAP7_75t_R

*CAP
1 *24:Y 2.26498e-06
2 *23:B 1.91927e-05
3 *12:2 2.14577e-05

*RES
1 *23:B *12:2 27.7981
2 *12:2 *24:Y 11.3622
*END

*D_NET *13 3.32594e-05

*CONN
*I *27:B I *C 5.904 6.444 *L 0.000379 *D NAND2xp5_ASAP7_75t_R
*I *26:Y O *C 5.616 5.94 *L 0 *D NAND3xp33_ASAP7_75t_R

*CAP
1 *26:Y 1.66297e-05
2 *27:B 1.66297e-05

*RES
1 *27:B *26:Y 57.606
*END

*D_NET *14 2.67029e-05

*CONN
*I *27:A I *C 5.616 6.3 *L 0.000378 *D NAND2xp5_ASAP7_75t_R
*I *25:Y O *C 5.616 8.1 *L 0 *D NAND3xp33_ASAP7_75t_R

*CAP
1 *25:Y 1.33514e-05
2 *27:A 1.33514e-05

*RES
1 *27:A *25:Y 51.5615
*END

*D_NET *15 6.87838e-05

*CONN
*I *27:Y O *C 6.192 6.3 *L 0 *D NAND2xp5_ASAP7_75t_R
*I *18:B I *C 6.408 8.604 *L 0.000374 *D AOI21xp5_ASAP7_75t_R

*CAP
1 *27:Y 3.43919e-05
2 *18:B 3.43919e-05

*RES
1 *18:B *27:Y 79.6789
*END

*D_NET *16 6.10352e-05

*CONN
*I *29:C I *C 9.288 5.652 *L 0.000379 *D A2O1A1Ixp33_ASAP7_75t_R
*I *28:Y O *C 10.8 5.94 *L 0 *D NAND3xp33_ASAP7_75t_R

*CAP
1 *28:Y 2.14577e-06
2 *29:C 2.83718e-05
3 *16:2 3.05176e-05

*RES
1 *29:C *16:2 35.133
2 *16:2 *28:Y 11.3622
*END

*D_NET *17 0.000251174

*CONN
*I *29:B I *C 9 5.796 *L 0.000368 *D A2O1A1Ixp33_ASAP7_75t_R
*I *28:C I *C 11.376 5.94 *L 0.000368 *D NAND3xp33_ASAP7_75t_R
*I *19:Y O *C 6.912 10.62 *L 0 *D XOR2xp5_ASAP7_75t_R

*CAP
1 *28:C 1.92523e-05
2 *19:Y 8.49962e-05
3 *29:B 2.14577e-06
4 *17:3 3.8445e-05
5 *17:4 0.000106335

*RES
1 *29:B *17:4 11.3622
2 *17:4 *19:Y 151.311
3 *17:3 *17:4 38.5491
4 *28:C *17:3 36.9668
*END

